(set-logic UFDT)
(declare-datatypes ((nat 0)) (((zero) (s (s0 nat)))))
(declare-fun add (nat nat) nat)
(non-erasing add 2)
(injective add (true true))
(declare-fun leq (nat nat) Bool)
(assert (forall ((y nat)) (= (add zero y) y)))
(assert (forall ((x nat) (y nat)) (= (add (s x) y) (s (add x y)))))
(assert (forall ((y nat)) (leq zero y)))
(assert (forall ((x nat)) (not (leq (s x) zero))))
(assert (forall ((x nat) (y nat)) (= (leq (s x) (s y)) (leq x y))))
(assert (not (forall ((v0 nat) (v1 nat) (v2 nat) (v3 nat) (v4 nat) (v5 nat)) (= (add (add (add v0 (add (s v1) (s v5))) v2) (s (s (add (s (add (s v4) (s v1))) (s (s (add v1 (s v3)))))))) (add (s (add (s v4) (add v1 (s (s v2))))) (add (s v0) (s (add (s v3) (add (s (s (s (add v1 v5)))) v1)))))))))
(check-sat)
